(set-info :source |printed by MathSAT|)
(declare-fun |sum::n__param__@2| () (_ BitVec 32))
(declare-fun |sum::m__param__@2| () (_ BitVec 32))
(declare-fun |sum::n@2| () (_ BitVec 32))
(declare-fun |sum::m@2| () (_ BitVec 32))
(declare-fun |sum::n__param__@3| () (_ BitVec 32))
(declare-fun |sum::m__param__@3| () (_ BitVec 32))
(declare-fun |sum::__retval__@2| () (_ BitVec 32))
(declare-fun |sum::n@3| () (_ BitVec 32))
(declare-fun |sum::m@3| () (_ BitVec 32))
(declare-fun |sum::n__param__@4| () (_ BitVec 32))
(declare-fun |sum::m__param__@4| () (_ BitVec 32))
(declare-fun |sum::n@4| () (_ BitVec 32))
(declare-fun |sum::m@4| () (_ BitVec 32))
(declare-fun |sum::iVar1@5| () (_ BitVec 32))
(declare-fun |sum::__retval__@3| () (_ BitVec 32))
(declare-fun |sum::__retval__@4| () (_ BitVec 32))
(declare-fun |sum::iVar1@7| () (_ BitVec 32))
(declare-fun |sum::iVar1@9| () (_ BitVec 32))
(declare-fun |main::iVar1@6| () (_ BitVec 32))
(assert (let ((.def_20 (= |sum::m__param__@2| |sum::m@2|)))(let ((.def_18 (= |sum::n__param__@2| |sum::n@2|)))(let ((.def_21 (and .def_18 .def_20)))(let ((.def_15 (= |sum::m__param__@2| (_ bv3 32))))(let ((.def_12 (= |sum::n__param__@2| (_ bv2 32))))(let ((.def_16 (and .def_12 .def_15)))(let ((.def_125 (and .def_16 .def_21)))(let ((.def_23 (bvslt |sum::n@2| (_ bv1 32))))(let ((.def_26 (not .def_23)))(let ((.def_126 (and .def_26 .def_125)))(let ((.def_35 (bvadd (_ bv1 32) |sum::m@2|)))(let ((.def_37 (= .def_35 |sum::m__param__@3|)))(let ((.def_31 (bvadd (_ bv4294967295 32) |sum::n@2|)))(let ((.def_33 (= .def_31 |sum::n__param__@3|)))(let ((.def_38 (and .def_33 .def_37)))(let ((.def_127 (and .def_38 .def_126)))(let ((.def_78 (= |sum::m__param__@3| |sum::m@3|)))(let ((.def_76 (= |sum::n__param__@3| |sum::n@3|)))(let ((.def_79 (and .def_76 .def_78)))(let ((.def_128 (and .def_79 .def_127)))(let ((.def_80 (bvslt |sum::n@3| (_ bv1 32))))(let ((.def_82 (not .def_80)))(let ((.def_129 (and .def_82 .def_128)))(let ((.def_90 (bvadd (_ bv1 32) |sum::m@3|)))(let ((.def_92 (= .def_90 |sum::m__param__@4|)))(let ((.def_86 (bvadd (_ bv4294967295 32) |sum::n@3|)))(let ((.def_88 (= .def_86 |sum::n__param__@4|)))(let ((.def_93 (and .def_88 .def_92)))(let ((.def_130 (and .def_93 .def_129)))(let ((.def_97 (= |sum::m__param__@4| |sum::m@4|)))(let ((.def_95 (= |sum::n__param__@4| |sum::n@4|)))(let ((.def_98 (and .def_95 .def_97)))(let ((.def_131 (and .def_98 .def_130)))(let ((.def_99 (bvslt |sum::n@4| (_ bv1 32))))(let ((.def_132 (and .def_99 .def_131)))(let ((.def_102 (bvadd |sum::n@4| |sum::m@4|)))(let ((.def_104 (= .def_102 |sum::iVar1@5|)))(let ((.def_133 (and .def_104 .def_132)))(let ((.def_106 (= |sum::__retval__@2| |sum::iVar1@5|)))(let ((.def_134 (and .def_106 .def_133)))(let ((.def_116 (= |sum::__retval__@2| |sum::iVar1@7|)))(let ((.def_135 (and .def_116 .def_134)))(let ((.def_117 (= |sum::__retval__@3| |sum::iVar1@7|)))(let ((.def_136 (and .def_117 .def_135)))(let ((.def_119 (= |sum::__retval__@3| |sum::iVar1@9|)))(let ((.def_137 (and .def_119 .def_136)))(let ((.def_120 (= |sum::__retval__@4| |sum::iVar1@9|)))(let ((.def_138 (and .def_120 .def_137)))(let ((.def_122 (= |sum::__retval__@4| |main::iVar1@6|)))(let ((.def_139 (and .def_122 .def_138)))(let ((.def_123 (= |main::iVar1@6| (_ bv5 32))))(let ((.def_140 (and .def_123 .def_139))).def_140)))))))))))))))))))))))))))))))))))))))))))))))))))))